\ENCODING=ISO-8859-1
\Problem name: TSP

Minimize
 obj1: 5.88232947054141 x1,2 + 5.42147581383519 x1,3 + 3.34819354279289 x1,4
       + 10.9668591675101 x1,5 + 8.25804456272791 x1,6 + 7.31221580644335 x1,7
       + 0.720277724214763 x1,8 + 11.7082236056543 x1,9
       + 7.93106550218822 x1,10 + 25.7208572951992 x1,11
       + 5.29499763928182 x1,12 + 5.07079875364819 x1,13
       + 5.30050940948132 x1,14 + 6.69122559775113 x1,15
       + 1.41209064864831 x1,16 + 3.94285429606522 x1,17
       + 3.35840736063986 x1,18 + 7.19461604256961 x1,19
       + 6.60916030975191 x1,20 + 6.54622028349184 x1,21
       + 2.24243171579426 x1,22 + 1.29189782877749 x2,3 + 4.48742687962712 x2,4
       + 16.7559004532732 x2,5 + 14.1039604367 x2,6 + 13.090611139286 x2,7
       + 6.06684431974317 x2,8 + 17.1306187862552 x2,9 + 13.1973482184869 x2,10
       + 31.5536004284773 x2,11 + 11.0747641058399 x2,12
       + 10.8929518497054 x2,13 + 11.1715710622992 x2,14
       + 12.5138043775664 x2,15 + 6.59334512975015 x2,16
       + 2.32260629466123 x2,17 + 4.69392160139046 x2,18
       + 12.6100475811949 x2,19 + 12.0240425814283 x2,20
       + 11.9468154752637 x2,21 + 4.10951335318429 x2,22
       + 4.83011387029333 x3,4 + 16.3882518896922 x3,5 + 13.4683666418761 x3,6
       + 12.3961163273019 x3,7 + 5.7494347548259 x3,8 + 16.2338319567501 x3,9
       + 12.2851536416929 x3,10 + 30.8569489742586 x3,11
       + 10.402124782947 x3,12 + 10.2571438519697 x3,13 + 10.598348928017 x3,14
       + 12.1121798203296 x3,15 + 5.88367232262301 x3,16 + 2.65 x3,17
       + 5.03619896350412 x3,18 + 11.7506127499803 x3,19
       + 11.1723676989258 x3,20 + 11.0916274730086 x3,21
       + 4.06911538297945 x3,22 + 12.8835088388218 x4,5 + 11.0070386571503 x4,6
       + 10.2403955001748 x4,7 + 2.96141857899217 x4,8 + 14.8748546211383 x4,9
       + 11.2032584545747 x4,10 + 28.3305718262092 x4,11
       + 8.29000603136089 x4,12 + 7.99656176115711 x4,13
       + 8.0476704703908 x4,14 + 8.8336232656821 x4,15 + 4.72055081531806 x4,16
       + 2.21054291973714 x4,17 + 0.208086520466844 x4,18
       + 10.4247254160481 x4,19 + 9.85016751126599 x4,20
       + 9.79409005472178 x4,21 + 1.42467540162663 x4,22 + 4.4010112474294 x5,6
       + 5.56852763304628 x5,7 + 10.6925955688972 x5,8 + 7.88264549500991 x5,9
       + 8.0892644906691 x5,10 + 15.9631607145953 x5,11
       + 6.77998525072142 x5,12 + 6.7041032211624 x5,13
       + 6.13822449898992 x5,14 + 4.28117974394909 x5,15
       + 10.7673023548148 x5,16 + 14.5686135235993 x5,17
       + 12.730424187748 x5,18 + 7.590948557328 x5,19 + 7.7430355804426 x5,20
       + 7.81589406274164 x5,21 + 12.6967909331453 x5,22
       + 1.25936491931449 x6,7 + 8.25009696912709 x6,8 + 4.79760356844956 x6,9
       + 3.71102411741018 x6,10 + 17.4628290949663 x6,11
       + 3.07761271117729 x6,12 + 3.21460728550161 x6,13
       + 2.98041943356971 x6,14 + 2.97015151128693 x6,15
       + 7.58662639122291 x6,16 + 12.1815352070254 x6,17
       + 10.9094912805318 x6,18 + 3.1935560117211 x6,19 + 3.3933022264455 x6,20
       + 3.47241990548378 x6,21 + 10.3700048215997 x6,22
       + 7.38504570060335 x7,8 + 4.89654980573056 x7,9 + 2.75065446757676 x7,10
       + 18.4688386207688 x7,11 + 2.02061871712602 x7,12
       + 2.25621364236634 x7,13 + 2.25204351645345 x7,14
       + 3.17001577283142 x7,15 + 6.51813623668607 x7,16
       + 11.2548389593099 x7,17 + 10.1607578457515 x7,18
       + 2.07171426601257 x7,19 + 2.17478734592603 x7,20
       + 2.24875521122242 x7,21 + 9.48815050470849 x7,22
       + 11.9314584188187 x8,9 + 8.24224483984794 x8,10
       + 25.6903892535711 x8,11 + 5.3943118189441 x8,12
       + 5.12884002480093 x8,13 + 5.27000948765749 x8,14
       + 6.44789112811313 x8,15 + 2.03960780543711 x8,16
       + 3.96122455813855 x8,17 + 2.93231990069296 x8,18
       + 7.46480408316253 x8,19 + 6.88913637548278 x8,20
       + 6.83275932548483 x8,21 + 2.12058954067023 x8,22
       + 3.95045566991961 x9,10 + 15.2085041999534 x9,11
       + 6.63162875921142 x9,12 + 6.9677040694909 x9,13
       + 7.11922046294396 x9,14 + 7.75860812259518 x9,15
       + 10.6258411431754 x9,16 + 15.5797047468814 x9,17
       + 14.8199055327623 x9,18 + 4.5392730695564 x9,19 + 5.1295711321708 x9,20
       + 5.2015862965061 x9,21 + 13.948734709643 x9,22
       + 18.9561520356849 x10,11 + 3.40828402572321 x10,12
       + 3.79610326519182 x10,13 + 4.22965719651132 x10,14
       + 5.82024913556112 x10,15 + 6.7569371759696 x10,16
       + 11.7218812483321 x10,17 + 11.1717903668123 x10,18
       + 0.89627004859027 x10,19 + 1.38405202214368 x10,20
       + 1.42562267097574 x10,21 + 10.1685839722156 x10,22
       + 20.4799340819252 x11,12 + 20.6639420246961 x11,13
       + 20.4301076844935 x11,14 + 19.5389098979447 x11,15
       + 24.9862222034464 x11,16 + 29.6382354400528 x11,17
       + 28.2100017724211 x11,18 + 19.2794709470981 x11,19
       + 19.8210014883204 x11,20 + 19.9077296545839 x11,21
       + 27.8099442645972 x11,22 + 0.388329756778952 x12,13
       + 0.960832971957146 x12,14 + 3.08812240690035 x12,15
       + 4.51851745598044 x12,16 + 9.23781900667035 x12,17
       + 8.22200097299921 x12,18 + 2.51286688863537 x12,19
       + 2.10237960416286 x12,20 + 2.10237960416286 x12,21
       + 7.48431025546108 x12,22 + 0.664830805543787 x13,14
       + 2.85245508290665 x13,15 + 4.38043376847545 x13,16
       + 9.01019977580964 x13,17 + 7.92250591669075 x13,18
       + 2.90043100245463 x13,19 + 2.48845333490504 x13,20
       + 2.48652367774771 x13,21 + 7.23329109050645 x13,22
       + 2.19155196151038 x14,15 + 4.76388496922417 x14,16
       + 9.20828431359501 x14,17 + 7.9577195225768 x14,18
       + 3.33839781931393 x14,19 + 2.99879975990395 x14,20
       + 3.01051490612486 x14,21 + 7.39024356838122 x14,22
       + 6.51417684746123 x15,16 + 10.3711908670123 x15,17
       + 8.70071261449314 x15,18 + 5.00649578048359 x15,19
       + 4.84298461694852 x15,20 + 4.8808298474747 x15,21
       + 8.49847045061639 x15,22 + 4.96516867790008 x16,17
       + 4.74620901351805 x16,18 + 6.08658360658917 x16,19
       + 5.49627146345593 x16,20 + 5.42485022834732 x16,21
       + 3.49343670330521 x16,22 + 2.41859463325296 x17,18
       + 11.0429434481935 x17,19 + 10.4528321521012 x17,20
       + 10.3834146599276 x17,21 + 1.87360614858086 x17,22
       + 10.384960279173 x18,19 + 9.81326143542502 x18,20
       + 9.75865257092392 x18,21 + 1.5440207252495 x18,22
       + 0.590338885725818 x19,20 + 0.663701740241805 x19,21
       + 9.43700164247098 x19,22 + 0.0894427190999913 x20,21
       + 8.8513106374141 x20,22 + 8.78799749658589 x21,22
Subject To
 Degree_constraint(1)#0:   x1,2 + x1,3 + x1,4 + x1,5 + x1,6 + x1,7 + x1,8
                           + x1,9 + x1,10 + x1,11 + x1,12 + x1,13 + x1,14
                           + x1,15 + x1,16 + x1,17 + x1,18 + x1,19 + x1,20
                           + x1,21 + x1,22  = 2
 Degree_constraint(2)#1:   x1,2 + x2,3 + x2,4 + x2,5 + x2,6 + x2,7 + x2,8
                           + x2,9 + x2,10 + x2,11 + x2,12 + x2,13 + x2,14
                           + x2,15 + x2,16 + x2,17 + x2,18 + x2,19 + x2,20
                           + x2,21 + x2,22  = 2
 Degree_constraint(3)#2:   x1,3 + x2,3 + x3,4 + x3,5 + x3,6 + x3,7 + x3,8
                           + x3,9 + x3,10 + x3,11 + x3,12 + x3,13 + x3,14
                           + x3,15 + x3,16 + x3,17 + x3,18 + x3,19 + x3,20
                           + x3,21 + x3,22  = 2
 Degree_constraint(4)#3:   x1,4 + x2,4 + x3,4 + x4,5 + x4,6 + x4,7 + x4,8
                           + x4,9 + x4,10 + x4,11 + x4,12 + x4,13 + x4,14
                           + x4,15 + x4,16 + x4,17 + x4,18 + x4,19 + x4,20
                           + x4,21 + x4,22  = 2
 Degree_constraint(5)#4:   x1,5 + x2,5 + x3,5 + x4,5 + x5,6 + x5,7 + x5,8
                           + x5,9 + x5,10 + x5,11 + x5,12 + x5,13 + x5,14
                           + x5,15 + x5,16 + x5,17 + x5,18 + x5,19 + x5,20
                           + x5,21 + x5,22  = 2
 Degree_constraint(6)#5:   x1,6 + x2,6 + x3,6 + x4,6 + x5,6 + x6,7 + x6,8
                           + x6,9 + x6,10 + x6,11 + x6,12 + x6,13 + x6,14
                           + x6,15 + x6,16 + x6,17 + x6,18 + x6,19 + x6,20
                           + x6,21 + x6,22  = 2
 Degree_constraint(7)#6:   x1,7 + x2,7 + x3,7 + x4,7 + x5,7 + x6,7 + x7,8
                           + x7,9 + x7,10 + x7,11 + x7,12 + x7,13 + x7,14
                           + x7,15 + x7,16 + x7,17 + x7,18 + x7,19 + x7,20
                           + x7,21 + x7,22  = 2
 Degree_constraint(8)#7:   x1,8 + x2,8 + x3,8 + x4,8 + x5,8 + x6,8 + x7,8
                           + x8,9 + x8,10 + x8,11 + x8,12 + x8,13 + x8,14
                           + x8,15 + x8,16 + x8,17 + x8,18 + x8,19 + x8,20
                           + x8,21 + x8,22  = 2
 Degree_constraint(9)#8:   x1,9 + x2,9 + x3,9 + x4,9 + x5,9 + x6,9 + x7,9
                           + x8,9 + x9,10 + x9,11 + x9,12 + x9,13 + x9,14
                           + x9,15 + x9,16 + x9,17 + x9,18 + x9,19 + x9,20
                           + x9,21 + x9,22  = 2
 Degree_constraint(10)#9:  x1,10 + x2,10 + x3,10 + x4,10 + x5,10 + x6,10
                           + x7,10 + x8,10 + x9,10 + x10,11 + x10,12 + x10,13
                           + x10,14 + x10,15 + x10,16 + x10,17 + x10,18
                           + x10,19 + x10,20 + x10,21 + x10,22  = 2
 Degree_constraint(11)#10: x1,11 + x2,11 + x3,11 + x4,11 + x5,11 + x6,11
                           + x7,11 + x8,11 + x9,11 + x10,11 + x11,12 + x11,13
                           + x11,14 + x11,15 + x11,16 + x11,17 + x11,18
                           + x11,19 + x11,20 + x11,21 + x11,22  = 2
 Degree_constraint(12)#11: x1,12 + x2,12 + x3,12 + x4,12 + x5,12 + x6,12
                           + x7,12 + x8,12 + x9,12 + x10,12 + x11,12 + x12,13
                           + x12,14 + x12,15 + x12,16 + x12,17 + x12,18
                           + x12,19 + x12,20 + x12,21 + x12,22  = 2
 Degree_constraint(13)#12: x1,13 + x2,13 + x3,13 + x4,13 + x5,13 + x6,13
                           + x7,13 + x8,13 + x9,13 + x10,13 + x11,13 + x12,13
                           + x13,14 + x13,15 + x13,16 + x13,17 + x13,18
                           + x13,19 + x13,20 + x13,21 + x13,22  = 2
 Degree_constraint(14)#13: x1,14 + x2,14 + x3,14 + x4,14 + x5,14 + x6,14
                           + x7,14 + x8,14 + x9,14 + x10,14 + x11,14 + x12,14
                           + x13,14 + x14,15 + x14,16 + x14,17 + x14,18
                           + x14,19 + x14,20 + x14,21 + x14,22  = 2
 Degree_constraint(15)#14: x1,15 + x2,15 + x3,15 + x4,15 + x5,15 + x6,15
                           + x7,15 + x8,15 + x9,15 + x10,15 + x11,15 + x12,15
                           + x13,15 + x14,15 + x15,16 + x15,17 + x15,18
                           + x15,19 + x15,20 + x15,21 + x15,22  = 2
 Degree_constraint(16)#15: x1,16 + x2,16 + x3,16 + x4,16 + x5,16 + x6,16
                           + x7,16 + x8,16 + x9,16 + x10,16 + x11,16 + x12,16
                           + x13,16 + x14,16 + x15,16 + x16,17 + x16,18
                           + x16,19 + x16,20 + x16,21 + x16,22  = 2
 Degree_constraint(17)#16: x1,17 + x2,17 + x3,17 + x4,17 + x5,17 + x6,17
                           + x7,17 + x8,17 + x9,17 + x10,17 + x11,17 + x12,17
                           + x13,17 + x14,17 + x15,17 + x16,17 + x17,18
                           + x17,19 + x17,20 + x17,21 + x17,22  = 2
 Degree_constraint(18)#17: x1,18 + x2,18 + x3,18 + x4,18 + x5,18 + x6,18
                           + x7,18 + x8,18 + x9,18 + x10,18 + x11,18 + x12,18
                           + x13,18 + x14,18 + x15,18 + x16,18 + x17,18
                           + x18,19 + x18,20 + x18,21 + x18,22  = 2
 Degree_constraint(19)#18: x1,19 + x2,19 + x3,19 + x4,19 + x5,19 + x6,19
                           + x7,19 + x8,19 + x9,19 + x10,19 + x11,19 + x12,19
                           + x13,19 + x14,19 + x15,19 + x16,19 + x17,19
                           + x18,19 + x19,20 + x19,21 + x19,22  = 2
 Degree_constraint(20)#19: x1,20 + x2,20 + x3,20 + x4,20 + x5,20 + x6,20
                           + x7,20 + x8,20 + x9,20 + x10,20 + x11,20 + x12,20
                           + x13,20 + x14,20 + x15,20 + x16,20 + x17,20
                           + x18,20 + x19,20 + x20,21 + x20,22  = 2
 Degree_constraint(21)#20: x1,21 + x2,21 + x3,21 + x4,21 + x5,21 + x6,21
                           + x7,21 + x8,21 + x9,21 + x10,21 + x11,21 + x12,21
                           + x13,21 + x14,21 + x15,21 + x16,21 + x17,21
                           + x18,21 + x19,21 + x20,21 + x21,22  = 2
 Degree_constraint(22)#21: x1,22 + x2,22 + x3,22 + x4,22 + x5,22 + x6,22
                           + x7,22 + x8,22 + x9,22 + x10,22 + x11,22 + x12,22
                           + x13,22 + x14,22 + x15,22 + x16,22 + x17,22
                           + x18,22 + x19,22 + x20,22 + x21,22  = 2
Bounds
 0 <= x1,2 <= 1
 0 <= x1,3 <= 1
 0 <= x1,4 <= 1
 0 <= x1,5 <= 1
 0 <= x1,6 <= 1
 0 <= x1,7 <= 1
 0 <= x1,8 <= 1
 0 <= x1,9 <= 1
 0 <= x1,10 <= 1
 0 <= x1,11 <= 1
 0 <= x1,12 <= 1
 0 <= x1,13 <= 1
 0 <= x1,14 <= 1
 0 <= x1,15 <= 1
 0 <= x1,16 <= 1
 0 <= x1,17 <= 1
 0 <= x1,18 <= 1
 0 <= x1,19 <= 1
 0 <= x1,20 <= 1
 0 <= x1,21 <= 1
 0 <= x1,22 <= 1
 0 <= x2,3 <= 1
 0 <= x2,4 <= 1
 0 <= x2,5 <= 1
 0 <= x2,6 <= 1
 0 <= x2,7 <= 1
 0 <= x2,8 <= 1
 0 <= x2,9 <= 1
 0 <= x2,10 <= 1
 0 <= x2,11 <= 1
 0 <= x2,12 <= 1
 0 <= x2,13 <= 1
 0 <= x2,14 <= 1
 0 <= x2,15 <= 1
 0 <= x2,16 <= 1
 0 <= x2,17 <= 1
 0 <= x2,18 <= 1
 0 <= x2,19 <= 1
 0 <= x2,20 <= 1
 0 <= x2,21 <= 1
 0 <= x2,22 <= 1
 0 <= x3,4 <= 1
 0 <= x3,5 <= 1
 0 <= x3,6 <= 1
 0 <= x3,7 <= 1
 0 <= x3,8 <= 1
 0 <= x3,9 <= 1
 0 <= x3,10 <= 1
 0 <= x3,11 <= 1
 0 <= x3,12 <= 1
 0 <= x3,13 <= 1
 0 <= x3,14 <= 1
 0 <= x3,15 <= 1
 0 <= x3,16 <= 1
 0 <= x3,17 <= 1
 0 <= x3,18 <= 1
 0 <= x3,19 <= 1
 0 <= x3,20 <= 1
 0 <= x3,21 <= 1
 0 <= x3,22 <= 1
 0 <= x4,5 <= 1
 0 <= x4,6 <= 1
 0 <= x4,7 <= 1
 0 <= x4,8 <= 1
 0 <= x4,9 <= 1
 0 <= x4,10 <= 1
 0 <= x4,11 <= 1
 0 <= x4,12 <= 1
 0 <= x4,13 <= 1
 0 <= x4,14 <= 1
 0 <= x4,15 <= 1
 0 <= x4,16 <= 1
 0 <= x4,17 <= 1
 0 <= x4,18 <= 1
 0 <= x4,19 <= 1
 0 <= x4,20 <= 1
 0 <= x4,21 <= 1
 0 <= x4,22 <= 1
 0 <= x5,6 <= 1
 0 <= x5,7 <= 1
 0 <= x5,8 <= 1
 0 <= x5,9 <= 1
 0 <= x5,10 <= 1
 0 <= x5,11 <= 1
 0 <= x5,12 <= 1
 0 <= x5,13 <= 1
 0 <= x5,14 <= 1
 0 <= x5,15 <= 1
 0 <= x5,16 <= 1
 0 <= x5,17 <= 1
 0 <= x5,18 <= 1
 0 <= x5,19 <= 1
 0 <= x5,20 <= 1
 0 <= x5,21 <= 1
 0 <= x5,22 <= 1
 0 <= x6,7 <= 1
 0 <= x6,8 <= 1
 0 <= x6,9 <= 1
 0 <= x6,10 <= 1
 0 <= x6,11 <= 1
 0 <= x6,12 <= 1
 0 <= x6,13 <= 1
 0 <= x6,14 <= 1
 0 <= x6,15 <= 1
 0 <= x6,16 <= 1
 0 <= x6,17 <= 1
 0 <= x6,18 <= 1
 0 <= x6,19 <= 1
 0 <= x6,20 <= 1
 0 <= x6,21 <= 1
 0 <= x6,22 <= 1
 0 <= x7,8 <= 1
 0 <= x7,9 <= 1
 0 <= x7,10 <= 1
 0 <= x7,11 <= 1
 0 <= x7,12 <= 1
 0 <= x7,13 <= 1
 0 <= x7,14 <= 1
 0 <= x7,15 <= 1
 0 <= x7,16 <= 1
 0 <= x7,17 <= 1
 0 <= x7,18 <= 1
 0 <= x7,19 <= 1
 0 <= x7,20 <= 1
 0 <= x7,21 <= 1
 0 <= x7,22 <= 1
 0 <= x8,9 <= 1
 0 <= x8,10 <= 1
 0 <= x8,11 <= 1
 0 <= x8,12 <= 1
 0 <= x8,13 <= 1
 0 <= x8,14 <= 1
 0 <= x8,15 <= 1
 0 <= x8,16 <= 1
 0 <= x8,17 <= 1
 0 <= x8,18 <= 1
 0 <= x8,19 <= 1
 0 <= x8,20 <= 1
 0 <= x8,21 <= 1
 0 <= x8,22 <= 1
 0 <= x9,10 <= 1
 0 <= x9,11 <= 1
 0 <= x9,12 <= 1
 0 <= x9,13 <= 1
 0 <= x9,14 <= 1
 0 <= x9,15 <= 1
 0 <= x9,16 <= 1
 0 <= x9,17 <= 1
 0 <= x9,18 <= 1
 0 <= x9,19 <= 1
 0 <= x9,20 <= 1
 0 <= x9,21 <= 1
 0 <= x9,22 <= 1
 0 <= x10,11 <= 1
 0 <= x10,12 <= 1
 0 <= x10,13 <= 1
 0 <= x10,14 <= 1
 0 <= x10,15 <= 1
 0 <= x10,16 <= 1
 0 <= x10,17 <= 1
 0 <= x10,18 <= 1
 0 <= x10,19 <= 1
 0 <= x10,20 <= 1
 0 <= x10,21 <= 1
 0 <= x10,22 <= 1
 0 <= x11,12 <= 1
 0 <= x11,13 <= 1
 0 <= x11,14 <= 1
 0 <= x11,15 <= 1
 0 <= x11,16 <= 1
 0 <= x11,17 <= 1
 0 <= x11,18 <= 1
 0 <= x11,19 <= 1
 0 <= x11,20 <= 1
 0 <= x11,21 <= 1
 0 <= x11,22 <= 1
 0 <= x12,13 <= 1
 0 <= x12,14 <= 1
 0 <= x12,15 <= 1
 0 <= x12,16 <= 1
 0 <= x12,17 <= 1
 0 <= x12,18 <= 1
 0 <= x12,19 <= 1
 0 <= x12,20 <= 1
 0 <= x12,21 <= 1
 0 <= x12,22 <= 1
 0 <= x13,14 <= 1
 0 <= x13,15 <= 1
 0 <= x13,16 <= 1
 0 <= x13,17 <= 1
 0 <= x13,18 <= 1
 0 <= x13,19 <= 1
 0 <= x13,20 <= 1
 0 <= x13,21 <= 1
 0 <= x13,22 <= 1
 0 <= x14,15 <= 1
 0 <= x14,16 <= 1
 0 <= x14,17 <= 1
 0 <= x14,18 <= 1
 0 <= x14,19 <= 1
 0 <= x14,20 <= 1
 0 <= x14,21 <= 1
 0 <= x14,22 <= 1
 0 <= x15,16 <= 1
 0 <= x15,17 <= 1
 0 <= x15,18 <= 1
 0 <= x15,19 <= 1
 0 <= x15,20 <= 1
 0 <= x15,21 <= 1
 0 <= x15,22 <= 1
 0 <= x16,17 <= 1
 0 <= x16,18 <= 1
 0 <= x16,19 <= 1
 0 <= x16,20 <= 1
 0 <= x16,21 <= 1
 0 <= x16,22 <= 1
 0 <= x17,18 <= 1
 0 <= x17,19 <= 1
 0 <= x17,20 <= 1
 0 <= x17,21 <= 1
 0 <= x17,22 <= 1
 0 <= x18,19 <= 1
 0 <= x18,20 <= 1
 0 <= x18,21 <= 1
 0 <= x18,22 <= 1
 0 <= x19,20 <= 1
 0 <= x19,21 <= 1
 0 <= x19,22 <= 1
 0 <= x20,21 <= 1
 0 <= x20,22 <= 1
 0 <= x21,22 <= 1
Binaries
 x1,2  x1,3  x1,4  x1,5  x1,6  x1,7  x1,8  x1,9  x1,10  x1,11  x1,12  x1,13 
 x1,14  x1,15  x1,16  x1,17  x1,18  x1,19  x1,20  x1,21  x1,22  x2,3  x2,4 
 x2,5  x2,6  x2,7  x2,8  x2,9  x2,10  x2,11  x2,12  x2,13  x2,14  x2,15  x2,16 
 x2,17  x2,18  x2,19  x2,20  x2,21  x2,22  x3,4  x3,5  x3,6  x3,7  x3,8  x3,9 
 x3,10  x3,11  x3,12  x3,13  x3,14  x3,15  x3,16  x3,17  x3,18  x3,19  x3,20 
 x3,21  x3,22  x4,5  x4,6  x4,7  x4,8  x4,9  x4,10  x4,11  x4,12  x4,13  x4,14 
 x4,15  x4,16  x4,17  x4,18  x4,19  x4,20  x4,21  x4,22  x5,6  x5,7  x5,8 
 x5,9  x5,10  x5,11  x5,12  x5,13  x5,14  x5,15  x5,16  x5,17  x5,18  x5,19 
 x5,20  x5,21  x5,22  x6,7  x6,8  x6,9  x6,10  x6,11  x6,12  x6,13  x6,14 
 x6,15  x6,16  x6,17  x6,18  x6,19  x6,20  x6,21  x6,22  x7,8  x7,9  x7,10 
 x7,11  x7,12  x7,13  x7,14  x7,15  x7,16  x7,17  x7,18  x7,19  x7,20  x7,21 
 x7,22  x8,9  x8,10  x8,11  x8,12  x8,13  x8,14  x8,15  x8,16  x8,17  x8,18 
 x8,19  x8,20  x8,21  x8,22  x9,10  x9,11  x9,12  x9,13  x9,14  x9,15  x9,16 
 x9,17  x9,18  x9,19  x9,20  x9,21  x9,22  x10,11  x10,12  x10,13  x10,14 
 x10,15  x10,16  x10,17  x10,18  x10,19  x10,20  x10,21  x10,22  x11,12 
 x11,13  x11,14  x11,15  x11,16  x11,17  x11,18  x11,19  x11,20  x11,21 
 x11,22  x12,13  x12,14  x12,15  x12,16  x12,17  x12,18  x12,19  x12,20 
 x12,21  x12,22  x13,14  x13,15  x13,16  x13,17  x13,18  x13,19  x13,20 
 x13,21  x13,22  x14,15  x14,16  x14,17  x14,18  x14,19  x14,20  x14,21 
 x14,22  x15,16  x15,17  x15,18  x15,19  x15,20  x15,21  x15,22  x16,17 
 x16,18  x16,19  x16,20  x16,21  x16,22  x17,18  x17,19  x17,20  x17,21 
 x17,22  x18,19  x18,20  x18,21  x18,22  x19,20  x19,21  x19,22  x20,21 
 x20,22  x21,22 
End
